2 30
924 757 
0 28 74 5 92 37 1 1
1 89 70 5 13 43 35 1
2 70 8 71 79 78 7 1
3 2 89 79 44 90 79 2
4 48 66 16 9 17 24 1
5 23 60 32 14 97 76 2
6 92 19 40 46 21 75 1
7 22 58 62 96 75 44 1
8 17 55 69 30 3 2 1
9 65 52 25 99 9 29 2
10 41 86 34 32 78 4 2
11 9 65 74 76 85 79 1
12 61 14 22 65 32 14 2
13 28 78 69 17 21 35 1
14 17 95 90 29 49 52 1
15 74 99 27 21 89 14 1
16 84 91 37 78 6 76 2
17 88 62 25 57 64 9 2
18 69 75 5 90 85 29 1
19 44 88 32 55 38 12 1
20 92 31 88 38 54 98 2
21 21 98 74 64 57 83 2
22 6 22 59 73 8 20 1
23 86 45 79 27 6 5 1
24 27 39 72 65 75 88 1
25 73 46 45 69 68 95 2
26 94 88 23 23 64 73 1
27 90 10 58 48 52 3 1
28 52 88 65 10 47 98 2
29 51 77 59 56 13 71 1
